5586
5519
5554
5504
5565
5520
5592
5464
5537
5557
5411
5598
5498
5448
5581
5600
5578
5587
5557
5573
5485
5589
5485
5553
5514
5548
5439
5460
5562
5564
5645
5593
5546
5594
5570
5548
5529
5568
5579
5527
5663
5655
5566
5615
5557
5551
5595
5584
5637
5614
5556
5572
5597
5555
5577
5562
5606
5576
5476
5554
5584
5589
5581
5418
5524
5559
5485
5557
5575
5597
5540
5548
5455
5498
5672
5565
5604
5556
5569
5636
5510
5572
5558
5651
5520
5552
5573
5525
5561
5573
5494
5595
5570
5531
5523
5604
5620
5591
5593
5586
